115766
0,63,72,12,36,17,47,4,21,43,18,23,30,64,49,3,82,7,27,34,71,80,59,46,48,33,56,42,2,11,22,54,41,24,68,14,1,50,55,6,26,32,15,37,29,78,5,60,77,40,51,38,62,52,58,67,81,74,10,39,8,70,65,19,76,16,57,73,31,20,53,45,44,35,25,75,66,13,69,61,79,28,9,0